
  32    4
  10   10   10   10

   0   0   0   0   0   3 2 6 8 
   3   1   0   2   1   2 13 3 
   1   3   1   0   3   3 31 11 4 
  10   3   4   0   4   1 5 
   1   3   0   5   5   3 30 29 7 
   4   6   0   7   5   3 30 29 7 
  10   6   6   0   6   5 28 22 14 10 9 
   2   3   3   5   0   7 30 29 28 22 15 11 10 
   7   3   4  10   0   7 27 26 25 24 21 19 12 
   4   0   4   4   5   5 26 25 21 19 18 
   9   3   0   3   3   3 21 17 16 
   1   0   4   4   4   2 17 15 
   4   2   0   3   5   4 27 24 21 20 
   7   0   5   6   3   3 24 21 18 
   9   8   0   3   9   1 16 
   3   9   5   0   2   1 18 
  10   7   6   5   0   1 18 
  10   0   7   3   4   1 20 
   3   5   0   2   5   1 20 
   5   0   4   6   4   1 23 
   5   5   2   0   2   1 23 
   1   3   3   3   0   1 23 
   1   3   1   0   5   1 32
   9   5   0   3   5   1 32
  10   4   3   2   0   1 32
   8   4   3   4   0   1 32
   1   3   2   4   0   1 32
   5   0   6   2   1   1 32
   8   4   3   0   3   1 32
   9   2   5   4   0   1 32
   1   1   7   2   0   1 32
   0   0   0   0   0   0 
